--- Job main_for_naive.gms Start 05/07/21 16:25:15 32.2.0 rc62c018 WEX-WEI x86 64bit/MS Windows
--- Applying:
    C:\GAMS\32\gmsprmNT.txt
--- GAMS Parameters defined
    Input C:\Users\charl\OneDrive\Dokumente\6.Semester\Bachelor-Arbeit\bachelor-thesis\LR_code_for_CharlotteRitter\main_for_naive.gms
    PageSize 0
    ScrDir C:\Users\charl\OneDrive\Dokumente\6.Semester\Bachelor-Arbeit\bachelor-thesis\LR_code_for_CharlotteRitter\225b\
    SysDir C:\GAMS\32\
    LogOption 3
    ErrMsg 1
    ErrorLog 99
    IDE 1
    LstTitleLeftAligned 1
GAMS 32.2.0   Copyright (C) 1987-2020 GAMS Development. All rights reserved
Licensee: Small MUD - 5 User License                     S200323/0001AN-GEN
          Friedrich-Alexander-Universitaet Erlangen-Nurnberg         DC7699
          C:\GAMS\32\gamslice.txt
--- Starting compilation
--- main_for_naive.gms(13) 2 Mb
--- . inputME.gms(14) 3 Mb
--- .. solar_scenarios_100_1.csv(101) 3 Mb
--- . inputME.gms(56) 3 Mb
--- .. scenario_sorted_100_1_05.csv(101) 3 Mb
--- . inputME.gms(116) 3 Mb
--- .. battery_revenue.csv(25) 3 Mb
--- . inputME.gms(185) 3 Mb
--- main_for_naive.gms(16) 3 Mb
--- . subgradient_parameters.gms(33) 3 Mb
--- main_for_naive.gms(19) 3 Mb
--- . equations_all.gms(76) 3 Mb
--- main_for_naive.gms(67) 3 Mb
--- Starting execution: elapsed 0:00:00.011
--- main_for_naive.gms(558) 5 Mb
--- Generating MIP model schedule
--- main_for_naive.gms(491) 5 Mb
--- Starting Equ Objective: elapsed 0:00:00.027
--- main_for_naive.gms(493) 5 Mb
--- Starting Equ Const1: elapsed 0:00:00.053
--- main_for_naive.gms(499) 6 Mb
--- Starting Equ Const_chance_1: elapsed 0:00:00.053
--- main_for_naive.gms(506) 7 Mb
--- Starting Equ Const_chance_2: elapsed 0:00:00.069
--- main_for_naive.gms(559) 7 Mb
---   4,702 rows  7,325 columns  21,325 non-zeroes
---   100 discrete-columns
--- Executing CPLEX (Solvelink=2): elapsed 0:00:00.084

IBM ILOG CPLEX   32.2.0 rc62c018 Released Aug 26, 2020 WEI x86 64bit/MS Window
--- GAMS/Cplex Link licensed for continuous and discrete problems.
Cplex 12.10.0.0

Reading data...
Starting Cplex...
Space for names approximately 0.29 Mb
Use option 'names no' to turn use of names off
Version identifier: 12.10.0.0 | 2019-11-26 | 843d4de2ae
CPXPARAM_Advance                                 0
CPXPARAM_Threads                                 8
CPXPARAM_Parallel                                1
CPXPARAM_MIP_Display                             4
CPXPARAM_TimeLimit                               2100
CPXPARAM_Tune_TimeLimit                          420
CPXPARAM_MIP_Tolerances_AbsMIPGap                0.001
CPXPARAM_MIP_Tolerances_MIPGap                   0.001
CPXPARAM_WorkDir                                 "C:\Users\charl\OneDrive\Dokumente\6.Semester\Bachelor-Arbeit\bachelor-thesis\LR_code_for_CharlotteRitter\225b\"
Found incumbent of value 0.000000 after 0.00 sec. (0.30 ticks)
Tried aggregator 1 time.
MIP Presolve eliminated 1 rows and 301 columns.
Reduced MIP has 4701 rows, 7024 columns, and 18600 nonzeros.
Reduced MIP has 100 binaries, 0 generals, 0 SOSs, and 0 indicators.
Presolve time = 0.03 sec. (7.71 ticks)
Probing time = 0.00 sec. (1.56 ticks)
Cover probing fixed 1 vars, tightened 23 bounds.
Tried aggregator 1 time.
Detecting symmetries...
MIP Presolve eliminated 100 rows and 1 columns.
Reduced MIP has 4601 rows, 7023 columns, and 18400 nonzeros.
Reduced MIP has 100 binaries, 0 generals, 0 SOSs, and 0 indicators.
Presolve time = 0.02 sec. (10.90 ticks)
Probing time = 0.00 sec. (0.33 ticks)
MIP emphasis: balance optimality and feasibility.
MIP search method: dynamic search.
Parallel mode: deterministic, using up to 8 threads.
Parallel mode: deterministic, using up to 2 threads for parallel tasks at root LP.
Parallel mode: deterministic, using up to 6 threads for concurrent optimization:
 * Starting dual Simplex on 1 thread...
 * Starting Barrier on 4 threads...
 * Starting primal Simplex on 1 thread...
Initializing dual steep norms . . .

Iteration log . . .
Iteration:     1   Dual objective     =          -533.071087
Perturbation started.
Iteration:   101   Dual objective     =          -533.071087
Iteration:   371   Dual objective     =          -530.459835
Iteration:   584   Dual objective     =          -514.780027
Iteration:   844   Dual objective     =          -493.464209
Iteration:  1019   Dual objective     =          -477.385348
Iteration:  1168   Dual objective     =          -463.603502
Iteration:  1410   Dual objective     =          -429.780190
Iteration:  1608   Dual objective     =          -410.291682
Iteration:  1735   Dual objective     =          -399.920427
Iteration:  1854   Dual objective     =          -391.056820
Iteration:  1987   Dual objective     =          -386.575399
Iteration:  2094   Dual objective     =          -382.782086
Iteration:  2198   Dual objective     =          -373.465272
Iteration:  2314   Dual objective     =          -368.449350
Iteration:  2423   Dual objective     =          -361.197683
Iteration:  2540   Dual objective     =          -355.289622
Iteration:  2644   Dual objective     =          -349.673066
Iteration:  2748   Dual objective     =          -344.885183
Iteration:  2846   Dual objective     =          -342.156080
Iteration:  2942   Dual objective     =          -338.352974
Removing perturbation.

Barrier solved model.

Root relaxation solution time = 0.36 sec. (293.66 ticks)

        Nodes                                         Cuts/
   Node  Left     Objective  IInf  Best Integer    Best Bound    ItCnt     Gap

*     0+    0                            0.0000     -533.0711              --- 
Found incumbent of value 0.000000 after 0.42 sec. (323.26 ticks)
*     0+    0                         -267.8581     -533.0711            99.01%
Found incumbent of value -267.858149 after 0.44 sec. (323.35 ticks)
      0     0     -302.6225    97     -267.8581     -302.6225       27   12.98%
*     0+    0                         -269.9060     -302.6225            12.12%
Found incumbent of value -269.906018 after 1.84 sec. (1658.49 ticks)
      0     0     -302.2252    97     -269.9060     Cuts: 782      184   11.97%
*     0+    0                         -270.1033     -302.2252            11.89%
Found incumbent of value -270.103299 after 2.36 sec. (1967.10 ticks)
      0     0     -302.0613    97     -270.1033     Cuts: 879      297   11.83%
*     0+    0                         -270.1620     -302.0613            11.81%
Found incumbent of value -270.161963 after 2.61 sec. (2106.19 ticks)
      0     0     -301.9221    97     -270.1620     Cuts: 714      448   11.76%
      0     0     -301.7931    97     -270.1620     Cuts: 643      570   11.71%
*     0+    0                         -270.1913     -301.7931            11.70%
Found incumbent of value -270.191324 after 3.13 sec. (2394.51 ticks)
      0     0     -301.6861    97     -270.1913     Cuts: 870      740   11.66%
Detecting symmetries...
      0     0     -301.6152    97     -270.1913     Cuts: 466      869   11.63%
      0     0     -301.5275    97     -270.1913     Cuts: 576     1041   11.60%
      0     0     -301.4749    97     -270.1913     Cuts: 501     1170   11.58%
      0     0     -301.4146    97     -270.1913     Cuts: 300     1317   11.56%
      0     0     -301.3576    97     -270.1913     Cuts: 423     1439   11.53%
*     0+    0                         -283.0077     -301.3576             6.48%
Found incumbent of value -283.007722 after 4.36 sec. (3142.60 ticks)
      0     0     -301.3152    97     -283.0077     Cuts: 496     1526    6.26%
      0     0     -301.2685    97     -283.0077     Cuts: 324     1628    6.26%
*     0+    0                         -283.0772     -300.7369             6.24%
Found incumbent of value -283.077222 after 8.03 sec. (6746.04 ticks)
*     0+    0                         -283.1366     -300.7369             6.22%
Found incumbent of value -283.136597 after 9.34 sec. (8430.99 ticks)

Implied bound cuts applied:  1
Flow cuts applied:  121
Mixed integer rounding cuts applied:  371

Root node processing (before b&c):
  Real time             =    9.34 sec. (8432.18 ticks)
Parallel b&c, 8 threads:
  Real time             =    0.00 sec. (0.00 ticks)
  Sync time (average)   =    0.00 sec.
  Wait time (average)   =    0.00 sec.
                          ------------
Total (root+branch&cut) =    9.34 sec. (8432.18 ticks)
MIP status(102): integer optimal, tolerance
Cplex Time: 9.34sec (det. 8432.20 ticks)
Fixing integer variables, and solving final LP...
Version identifier: 12.10.0.0 | 2019-11-26 | 843d4de2ae
CPXPARAM_Advance                                 2
CPXPARAM_Threads                                 8
CPXPARAM_Parallel                                1
CPXPARAM_MIP_Display                             4
CPXPARAM_TimeLimit                               2100
CPXPARAM_Tune_TimeLimit                          420
CPXPARAM_MIP_Tolerances_AbsMIPGap                0.001
CPXPARAM_MIP_Tolerances_MIPGap                   0.001
CPXPARAM_WorkDir                                 "C:\Users\charl\OneDrive\Dokumente\6.Semester\Bachelor-Arbeit\bachelor-thesis\LR_code_for_CharlotteRitter\225b\"
Parallel mode: deterministic, using up to 8 threads for concurrent optimization:
 * Starting dual Simplex on 1 thread...
 * Starting Barrier on 6 threads...
 * Starting primal Simplex on 1 thread...
Tried aggregator 1 time.
LP Presolve eliminated 102 rows and 402 columns.
Reduced LP has 4600 rows, 6923 columns, and 16000 nonzeros.
Presolve time = 0.00 sec. (7.81 ticks)
Initializing dual steep norms . . .

Iteration log . . .
Iteration:     1   Dual infeasibility =             0.619853
Iteration:    47   Dual objective     =          -562.287538
Iteration:   417   Dual objective     =          -381.479771
Iteration:   694   Dual objective     =          -338.664738
Iteration:   938   Dual objective     =          -330.553608
Iteration:  1108   Dual objective     =          -327.766990
Iteration:  1266   Dual objective     =          -314.297343
Iteration:  1388   Dual objective     =          -305.328632
Iteration:  1564   Dual objective     =          -297.554509
Iteration:  1696   Dual objective     =          -291.686384
Iteration:  1854   Dual objective     =          -289.496497
Iteration:  1999   Dual objective     =          -288.324021
Iteration:  2137   Dual objective     =          -286.828632
Iteration:  2262   Dual objective     =          -285.542029
Iteration:  2412   Dual objective     =          -284.759941
Iteration:  2552   Dual objective     =          -284.296884
Iteration:  2678   Dual objective     =          -283.263252
Iteration:  2830   Dual objective     =          -283.132309
Removing shift (11).

Dual simplex solved model.

Fixed MIP status(1): optimal
Cplex Time: 0.19sec (det. 174.39 ticks)

Solution satisfies tolerances.

MIP Solution:         -283.136597    (1628 iterations, 0 nodes)
Final Solve:          -283.136597    (2837 iterations)

Best possible:        -283.412973
Absolute gap:            0.276377
Relative gap:            0.000975

--- Reading solution for model schedule
--- Executing after solve: elapsed 0:00:09.699
--- main_for_naive.gms(585) 7 Mb
--- Putfile NaiveSolve C:\Users\charl\OneDrive\Dokumente\6.Semester\Bachelor-Arbeit\bachelor-thesis\LR_code_for_CharlotteRitter\NaiveSolve.csv
--- Profile Summary (524 records processed)
     9.609   0.007GB       559 Solve Alg  schedule
     0.031   0.005GB       491 Equation   Objective (1)
     0.016   0.007GB       559 Solve Read schedule
     0.016   0.004GB       414 Assignment minsolar (14)
     0.016   0.004GB       412 Loop       
     0.016   0.004GB       411 Loop       
     0.016   0.007GB       559 Solve Fini schedule (21325)
     0.015   0.007GB       499 Equation   Const_chance_1 (2400)
*** Status: Normal completion
--- Job main_for_naive.gms Stop 05/07/21 16:25:25 elapsed 0:00:09.701
